sample.cnf
p cnf 5 7
1 -2 0
3 0
2 3 -2 0
-1 -2 0
1 4 5 -4 0
1 -3 0
5 -5 0